c Sudoku solution
p cnf 729 0
124 0
137 0
198 0
242 0
261 0
275 0
289 0
311 0
496 0
534 0
566 0
577 0
618 0
657 0
297 0
254 0
695 0
712 0
749 0
771 0
181 0
172 0
591 0
831 0
847 0
367 0
868 0
886 0
376 0
951 0
963 0
852 0
992 0
899 0
987 0
785 0
978 0
756 0
764 0
945 0
793 0
874 0
738 0
727 0
914 0
417 0
228 0
146 0
216 0
233 0
153 0
348 0
543 0
813 0
825 0
394 0
383 0
529 0
515 0
432 0
636 0
662 0
582 0
684 0
488 0
444 0
641 0
421 0
623 0
473 0
679 0
558 0
119 0
335 0
322 0
165 0
359 0
926 0
939 0
455 0
469 0
